0 0 0 0
0 1 0 0
0 2 0 0
0 3 0 0
0 4 2 2
0 5 0 2
0 6 1 2
0 7 2 2
0 8 2 5
0 9 0 10
0 10 2 5
0 11 2 11
0 12 2 11
0 13 2 20
0 14 1 11
0 15 2 20
0 16 2 11
0 17 1 21
0 18 1 10
0 19 2 10
0 20 0 28
0 21 2 28
0 22 2 19
0 23 2 29
0 24 2 21
0 25 2 29
0 26 2 29
0 27 2 20
0 28 2 29
0 29 0 38
0 30 0 36
0 31 0 39
